p edge 20 30
e 1 11
e 1 12
e 1 17
e 2 3
e 2 9
e 2 11
e 3 7
e 3 8
e 3 11
e 3 17
e 3 19
e 4 10
e 4 16
e 4 17
e 5 8
e 5 15
e 5 16
e 5 20
e 7 8
e 7 12
e 8 13
e 8 16
e 8 20
e 9 12
e 10 13
e 10 16
e 11 17
e 12 16
e 15 16
e 18 19
